Maximize
  36 x0_0_ + 36 x0_1_ + 36 x0_2_ + 36 x0_3_ + 36 x0_4_ + 8 x0_5_ + 8 x0_6_
   + 36 x0_7_ + 36 x0_8_ + 36 x0_9_ + 360 x1_5_ + 360 x1_6_ + 17 x2_5_
   + 17 x2_6_ + 144 x3_5_ + 144 x3_6_ + 18 x4_0_ + 18 x4_1_ + 18 x4_2_
   + 18 x4_3_ + 18 x4_4_ + 4 x4_5_ + 4 x4_6_ + 18 x4_7_ + 18 x4_8_
   + 18 x4_9_ + 9 x5_0_ + 9 x5_1_ + 9 x5_2_ + 9 x5_3_ + 9 x5_4_ + 2 x5_5_
   + 2 x5_6_ + 9 x5_7_ + 9 x5_8_ + 9 x5_9_ + 18 x6_0_ + 18 x6_1_ + 18 x6_2_
   + 18 x6_3_ + 18 x6_4_ + 4 x6_5_ + 4 x6_6_ + 18 x6_7_ + 18 x6_8_
   + 18 x6_9_ + 18 x7_0_ + 18 x7_1_ + 18 x7_2_ + 18 x7_3_ + 18 x7_4_
   + 4 x7_5_ + 4 x7_6_ + 18 x7_7_ + 18 x7_8_ + 18 x7_9_ + 18 x8_0_
   + 18 x8_1_ + 18 x8_2_ + 18 x8_3_ + 18 x8_4_ + 4 x8_5_ + 4 x8_6_
   + 18 x8_7_ + 18 x8_8_ + 18 x8_9_ + 54 x9_0_ + 54 x9_1_ + 54 x9_2_
   + 54 x9_3_ + 54 x9_4_ + 12 x9_5_ + 12 x9_6_ + 54 x9_7_ + 54 x9_8_
   + 54 x9_9_ + 68 x10_5_ + 68 x10_6_ + 36 x11_0_ + 36 x11_1_ + 36 x11_2_
   + 36 x11_3_ + 36 x11_4_ + 8 x11_5_ + 8 x11_6_ + 36 x11_7_ + 36 x11_8_
   + 36 x11_9_ + 102 x12_5_ + 102 x12_6_ + 18 x13_0_ + 18 x13_1_
   + 18 x13_2_ + 18 x13_3_ + 18 x13_4_ + 4 x13_5_ + 4 x13_6_ + 18 x13_7_
   + 18 x13_8_ + 18 x13_9_ + 36 x14_0_ + 36 x14_1_ + 36 x14_2_ + 36 x14_3_
   + 36 x14_4_ + 8 x14_5_ + 8 x14_6_ + 36 x14_7_ + 36 x14_8_ + 36 x14_9_
   + 18 x15_0_ + 18 x15_1_ + 18 x15_2_ + 18 x15_3_ + 18 x15_4_ + 4 x15_5_
   + 4 x15_6_ + 18 x15_7_ + 18 x15_8_ + 18 x15_9_ + 72 x16_5_ + 72 x16_6_
   + 288 x17_5_ + 288 x17_6_ + 72 x18_0_ + 72 x18_1_ + 72 x18_2_
   + 72 x18_3_ + 72 x18_4_ + 16 x18_5_ + 16 x18_6_ + 72 x18_7_ + 72 x18_8_
   + 72 x18_9_ + 45 x19_0_ + 45 x19_1_ + 45 x19_2_ + 45 x19_3_ + 45 x19_4_
   + 10 x19_5_ + 10 x19_6_ + 45 x19_7_ + 45 x19_8_ + 45 x19_9_
Subject To
 R0: x0_0_ + x0_1_ + x0_2_ + x0_3_ + x0_4_ + x0_5_ + x0_6_ + x0_7_ + x0_8_
   + x0_9_ + x0_n_ = 1
 R1: x1_5_ + x1_6_ + x1_n_ = 1
 R2: x2_5_ + x2_6_ + x2_n_ = 1
 R3: x3_5_ + x3_6_ + x3_n_ = 1
 R4: x4_0_ + x4_1_ + x4_2_ + x4_3_ + x4_4_ + x4_5_ + x4_6_ + x4_7_ + x4_8_
   + x4_9_ + x4_n_ = 1
 R5: x5_0_ + x5_1_ + x5_2_ + x5_3_ + x5_4_ + x5_5_ + x5_6_ + x5_7_ + x5_8_
   + x5_9_ + x5_n_ = 1
 R6: x6_0_ + x6_1_ + x6_2_ + x6_3_ + x6_4_ + x6_5_ + x6_6_ + x6_7_ + x6_8_
   + x6_9_ + x6_n_ = 1
 R7: x7_0_ + x7_1_ + x7_2_ + x7_3_ + x7_4_ + x7_5_ + x7_6_ + x7_7_ + x7_8_
   + x7_9_ + x7_n_ = 1
 R8: x8_0_ + x8_1_ + x8_2_ + x8_3_ + x8_4_ + x8_5_ + x8_6_ + x8_7_ + x8_8_
   + x8_9_ + x8_n_ = 1
 R9: x9_0_ + x9_1_ + x9_2_ + x9_3_ + x9_4_ + x9_5_ + x9_6_ + x9_7_ + x9_8_
   + x9_9_ + x9_n_ = 1
 R10: x10_5_ + x10_6_ + x10_n_ = 1
 R11: x11_0_ + x11_1_ + x11_2_ + x11_3_ + x11_4_ + x11_5_ + x11_6_ + x11_7_
   + x11_8_ + x11_9_ + x11_n_ = 1
 R12: x12_5_ + x12_6_ + x12_n_ = 1
 R13: x13_0_ + x13_1_ + x13_2_ + x13_3_ + x13_4_ + x13_5_ + x13_6_ + x13_7_
   + x13_8_ + x13_9_ + x13_n_ = 1
 R14: x14_0_ + x14_1_ + x14_2_ + x14_3_ + x14_4_ + x14_5_ + x14_6_ + x14_7_
   + x14_8_ + x14_9_ + x14_n_ = 1
 R15: x15_0_ + x15_1_ + x15_2_ + x15_3_ + x15_4_ + x15_5_ + x15_6_ + x15_7_
   + x15_8_ + x15_9_ + x15_n_ = 1
 R16: x16_5_ + x16_6_ + x16_n_ = 1
 R17: x17_5_ + x17_6_ + x17_n_ = 1
 R18: x18_0_ + x18_1_ + x18_2_ + x18_3_ + x18_4_ + x18_5_ + x18_6_ + x18_7_
   + x18_8_ + x18_9_ + x18_n_ = 1
 R19: x19_0_ + x19_1_ + x19_2_ + x19_3_ + x19_4_ + x19_5_ + x19_6_ + x19_7_
   + x19_8_ + x19_9_ + x19_n_ = 1
 R20: x0_0_ + x7_0_ <= 1
 R21: x0_1_ + x7_1_ <= 1
 R22: x0_2_ + x7_2_ <= 1
 R23: x0_3_ + x7_3_ <= 1
 R24: x0_4_ + x7_4_ <= 1
 R25: x0_5_ + x7_5_ <= 1
 R26: x0_6_ + x7_6_ <= 1
 R27: x0_7_ + x7_7_ <= 1
 R28: x0_8_ + x7_8_ <= 1
 R29: x0_9_ + x7_9_ <= 1
 R30: x0_0_ + x8_0_ <= 1
 R31: x0_1_ + x8_1_ <= 1
 R32: x0_2_ + x8_2_ <= 1
 R33: x0_3_ + x8_3_ <= 1
 R34: x0_4_ + x8_4_ <= 1
 R35: x0_5_ + x8_5_ <= 1
 R36: x0_6_ + x8_6_ <= 1
 R37: x0_7_ + x8_7_ <= 1
 R38: x0_8_ + x8_8_ <= 1
 R39: x0_9_ + x8_9_ <= 1
 R40: x0_0_ + x9_0_ <= 1
 R41: x0_1_ + x9_1_ <= 1
 R42: x0_2_ + x9_2_ <= 1
 R43: x0_3_ + x9_3_ <= 1
 R44: x0_4_ + x9_4_ <= 1
 R45: x0_5_ + x9_5_ <= 1
 R46: x0_6_ + x9_6_ <= 1
 R47: x0_7_ + x9_7_ <= 1
 R48: x0_8_ + x9_8_ <= 1
 R49: x0_9_ + x9_9_ <= 1
 R50: x0_0_ + x11_0_ <= 1
 R51: x0_1_ + x11_1_ <= 1
 R52: x0_2_ + x11_2_ <= 1
 R53: x0_3_ + x11_3_ <= 1
 R54: x0_4_ + x11_4_ <= 1
 R55: x0_5_ + x11_5_ <= 1
 R56: x0_6_ + x11_6_ <= 1
 R57: x0_7_ + x11_7_ <= 1
 R58: x0_8_ + x11_8_ <= 1
 R59: x0_9_ + x11_9_ <= 1
 R60: x0_0_ + x13_0_ <= 1
 R61: x0_1_ + x13_1_ <= 1
 R62: x0_2_ + x13_2_ <= 1
 R63: x0_3_ + x13_3_ <= 1
 R64: x0_4_ + x13_4_ <= 1
 R65: x0_5_ + x13_5_ <= 1
 R66: x0_6_ + x13_6_ <= 1
 R67: x0_7_ + x13_7_ <= 1
 R68: x0_8_ + x13_8_ <= 1
 R69: x0_9_ + x13_9_ <= 1
 R70: x0_0_ + x14_0_ <= 1
 R71: x0_1_ + x14_1_ <= 1
 R72: x0_2_ + x14_2_ <= 1
 R73: x0_3_ + x14_3_ <= 1
 R74: x0_4_ + x14_4_ <= 1
 R75: x0_5_ + x14_5_ <= 1
 R76: x0_6_ + x14_6_ <= 1
 R77: x0_7_ + x14_7_ <= 1
 R78: x0_8_ + x14_8_ <= 1
 R79: x0_9_ + x14_9_ <= 1
 R80: x0_0_ + x15_0_ <= 1
 R81: x0_1_ + x15_1_ <= 1
 R82: x0_2_ + x15_2_ <= 1
 R83: x0_3_ + x15_3_ <= 1
 R84: x0_4_ + x15_4_ <= 1
 R85: x0_5_ + x15_5_ <= 1
 R86: x0_6_ + x15_6_ <= 1
 R87: x0_7_ + x15_7_ <= 1
 R88: x0_8_ + x15_8_ <= 1
 R89: x0_9_ + x15_9_ <= 1
 R90: x0_0_ + x18_0_ <= 1
 R91: x0_1_ + x18_1_ <= 1
 R92: x0_2_ + x18_2_ <= 1
 R93: x0_3_ + x18_3_ <= 1
 R94: x0_4_ + x18_4_ <= 1
 R95: x0_5_ + x18_5_ <= 1
 R96: x0_6_ + x18_6_ <= 1
 R97: x0_7_ + x18_7_ <= 1
 R98: x0_8_ + x18_8_ <= 1
 R99: x0_9_ + x18_9_ <= 1
 R100: x0_0_ + x19_0_ <= 1
 R101: x0_1_ + x19_1_ <= 1
 R102: x0_2_ + x19_2_ <= 1
 R103: x0_3_ + x19_3_ <= 1
 R104: x0_4_ + x19_4_ <= 1
 R105: x0_5_ + x19_5_ <= 1
 R106: x0_6_ + x19_6_ <= 1
 R107: x0_7_ + x19_7_ <= 1
 R108: x0_8_ + x19_8_ <= 1
 R109: x0_9_ + x19_9_ <= 1
 R110: x0_5_ + x1_5_ <= 1
 R111: x0_6_ + x1_6_ <= 1
 R112: x1_5_ + x3_5_ <= 1
 R113: x1_6_ + x3_6_ <= 1
 R114: x1_5_ + x7_5_ <= 1
 R115: x1_6_ + x7_6_ <= 1
 R116: x1_5_ + x8_5_ <= 1
 R117: x1_6_ + x8_6_ <= 1
 R118: x1_5_ + x9_5_ <= 1
 R119: x1_6_ + x9_6_ <= 1
 R120: x1_5_ + x11_5_ <= 1
 R121: x1_6_ + x11_6_ <= 1
 R122: x1_5_ + x13_5_ <= 1
 R123: x1_6_ + x13_6_ <= 1
 R124: x1_5_ + x14_5_ <= 1
 R125: x1_6_ + x14_6_ <= 1
 R126: x1_5_ + x15_5_ <= 1
 R127: x1_6_ + x15_6_ <= 1
 R128: x1_5_ + x17_5_ <= 1
 R129: x1_6_ + x17_6_ <= 1
 R130: x1_5_ + x18_5_ <= 1
 R131: x1_6_ + x18_6_ <= 1
 R132: x1_5_ + x19_5_ <= 1
 R133: x1_6_ + x19_6_ <= 1
 R134: x0_5_ + x3_5_ <= 1
 R135: x0_6_ + x3_6_ <= 1
 R136: x1_5_ + x3_5_ <= 1
 R137: x1_6_ + x3_6_ <= 1
 R138: x3_5_ + x8_5_ <= 1
 R139: x3_6_ + x8_6_ <= 1
 R140: x3_5_ + x9_5_ <= 1
 R141: x3_6_ + x9_6_ <= 1
 R142: x3_5_ + x11_5_ <= 1
 R143: x3_6_ + x11_6_ <= 1
 R144: x3_5_ + x14_5_ <= 1
 R145: x3_6_ + x14_6_ <= 1
 R146: x3_5_ + x17_5_ <= 1
 R147: x3_6_ + x17_6_ <= 1
 R148: x3_5_ + x18_5_ <= 1
 R149: x3_6_ + x18_6_ <= 1
 R150: x3_5_ + x19_5_ <= 1
 R151: x3_6_ + x19_6_ <= 1
 R152: x4_0_ + x5_0_ <= 1
 R153: x4_1_ + x5_1_ <= 1
 R154: x4_2_ + x5_2_ <= 1
 R155: x4_3_ + x5_3_ <= 1
 R156: x4_4_ + x5_4_ <= 1
 R157: x4_5_ + x5_5_ <= 1
 R158: x4_6_ + x5_6_ <= 1
 R159: x4_7_ + x5_7_ <= 1
 R160: x4_8_ + x5_8_ <= 1
 R161: x4_9_ + x5_9_ <= 1
 R162: x4_0_ + x6_0_ <= 1
 R163: x4_1_ + x6_1_ <= 1
 R164: x4_2_ + x6_2_ <= 1
 R165: x4_3_ + x6_3_ <= 1
 R166: x4_4_ + x6_4_ <= 1
 R167: x4_5_ + x6_5_ <= 1
 R168: x4_6_ + x6_6_ <= 1
 R169: x4_7_ + x6_7_ <= 1
 R170: x4_8_ + x6_8_ <= 1
 R171: x4_9_ + x6_9_ <= 1
 R172: x4_0_ + x9_0_ <= 1
 R173: x4_1_ + x9_1_ <= 1
 R174: x4_2_ + x9_2_ <= 1
 R175: x4_3_ + x9_3_ <= 1
 R176: x4_4_ + x9_4_ <= 1
 R177: x4_5_ + x9_5_ <= 1
 R178: x4_6_ + x9_6_ <= 1
 R179: x4_7_ + x9_7_ <= 1
 R180: x4_8_ + x9_8_ <= 1
 R181: x4_9_ + x9_9_ <= 1
 R182: x4_0_ + x18_0_ <= 1
 R183: x4_1_ + x18_1_ <= 1
 R184: x4_2_ + x18_2_ <= 1
 R185: x4_3_ + x18_3_ <= 1
 R186: x4_4_ + x18_4_ <= 1
 R187: x4_5_ + x18_5_ <= 1
 R188: x4_6_ + x18_6_ <= 1
 R189: x4_7_ + x18_7_ <= 1
 R190: x4_8_ + x18_8_ <= 1
 R191: x4_9_ + x18_9_ <= 1
 R192: x4_0_ + x5_0_ <= 1
 R193: x4_1_ + x5_1_ <= 1
 R194: x4_2_ + x5_2_ <= 1
 R195: x4_3_ + x5_3_ <= 1
 R196: x4_4_ + x5_4_ <= 1
 R197: x4_5_ + x5_5_ <= 1
 R198: x4_6_ + x5_6_ <= 1
 R199: x4_7_ + x5_7_ <= 1
 R200: x4_8_ + x5_8_ <= 1
 R201: x4_9_ + x5_9_ <= 1
 R202: x5_0_ + x9_0_ <= 1
 R203: x5_1_ + x9_1_ <= 1
 R204: x5_2_ + x9_2_ <= 1
 R205: x5_3_ + x9_3_ <= 1
 R206: x5_4_ + x9_4_ <= 1
 R207: x5_5_ + x9_5_ <= 1
 R208: x5_6_ + x9_6_ <= 1
 R209: x5_7_ + x9_7_ <= 1
 R210: x5_8_ + x9_8_ <= 1
 R211: x5_9_ + x9_9_ <= 1
 R212: x5_0_ + x18_0_ <= 1
 R213: x5_1_ + x18_1_ <= 1
 R214: x5_2_ + x18_2_ <= 1
 R215: x5_3_ + x18_3_ <= 1
 R216: x5_4_ + x18_4_ <= 1
 R217: x5_5_ + x18_5_ <= 1
 R218: x5_6_ + x18_6_ <= 1
 R219: x5_7_ + x18_7_ <= 1
 R220: x5_8_ + x18_8_ <= 1
 R221: x5_9_ + x18_9_ <= 1
 R222: x4_0_ + x6_0_ <= 1
 R223: x4_1_ + x6_1_ <= 1
 R224: x4_2_ + x6_2_ <= 1
 R225: x4_3_ + x6_3_ <= 1
 R226: x4_4_ + x6_4_ <= 1
 R227: x4_5_ + x6_5_ <= 1
 R228: x4_6_ + x6_6_ <= 1
 R229: x4_7_ + x6_7_ <= 1
 R230: x4_8_ + x6_8_ <= 1
 R231: x4_9_ + x6_9_ <= 1
 R232: x6_0_ + x9_0_ <= 1
 R233: x6_1_ + x9_1_ <= 1
 R234: x6_2_ + x9_2_ <= 1
 R235: x6_3_ + x9_3_ <= 1
 R236: x6_4_ + x9_4_ <= 1
 R237: x6_5_ + x9_5_ <= 1
 R238: x6_6_ + x9_6_ <= 1
 R239: x6_7_ + x9_7_ <= 1
 R240: x6_8_ + x9_8_ <= 1
 R241: x6_9_ + x9_9_ <= 1
 R242: x6_0_ + x18_0_ <= 1
 R243: x6_1_ + x18_1_ <= 1
 R244: x6_2_ + x18_2_ <= 1
 R245: x6_3_ + x18_3_ <= 1
 R246: x6_4_ + x18_4_ <= 1
 R247: x6_5_ + x18_5_ <= 1
 R248: x6_6_ + x18_6_ <= 1
 R249: x6_7_ + x18_7_ <= 1
 R250: x6_8_ + x18_8_ <= 1
 R251: x6_9_ + x18_9_ <= 1
 R252: x0_0_ + x7_0_ <= 1
 R253: x0_1_ + x7_1_ <= 1
 R254: x0_2_ + x7_2_ <= 1
 R255: x0_3_ + x7_3_ <= 1
 R256: x0_4_ + x7_4_ <= 1
 R257: x0_5_ + x7_5_ <= 1
 R258: x0_6_ + x7_6_ <= 1
 R259: x0_7_ + x7_7_ <= 1
 R260: x0_8_ + x7_8_ <= 1
 R261: x0_9_ + x7_9_ <= 1
 R262: x7_0_ + x8_0_ <= 1
 R263: x7_1_ + x8_1_ <= 1
 R264: x7_2_ + x8_2_ <= 1
 R265: x7_3_ + x8_3_ <= 1
 R266: x7_4_ + x8_4_ <= 1
 R267: x7_5_ + x8_5_ <= 1
 R268: x7_6_ + x8_6_ <= 1
 R269: x7_7_ + x8_7_ <= 1
 R270: x7_8_ + x8_8_ <= 1
 R271: x7_9_ + x8_9_ <= 1
 R272: x7_0_ + x11_0_ <= 1
 R273: x7_1_ + x11_1_ <= 1
 R274: x7_2_ + x11_2_ <= 1
 R275: x7_3_ + x11_3_ <= 1
 R276: x7_4_ + x11_4_ <= 1
 R277: x7_5_ + x11_5_ <= 1
 R278: x7_6_ + x11_6_ <= 1
 R279: x7_7_ + x11_7_ <= 1
 R280: x7_8_ + x11_8_ <= 1
 R281: x7_9_ + x11_9_ <= 1
 R282: x7_0_ + x13_0_ <= 1
 R283: x7_1_ + x13_1_ <= 1
 R284: x7_2_ + x13_2_ <= 1
 R285: x7_3_ + x13_3_ <= 1
 R286: x7_4_ + x13_4_ <= 1
 R287: x7_5_ + x13_5_ <= 1
 R288: x7_6_ + x13_6_ <= 1
 R289: x7_7_ + x13_7_ <= 1
 R290: x7_8_ + x13_8_ <= 1
 R291: x7_9_ + x13_9_ <= 1
 R292: x7_0_ + x14_0_ <= 1
 R293: x7_1_ + x14_1_ <= 1
 R294: x7_2_ + x14_2_ <= 1
 R295: x7_3_ + x14_3_ <= 1
 R296: x7_4_ + x14_4_ <= 1
 R297: x7_5_ + x14_5_ <= 1
 R298: x7_6_ + x14_6_ <= 1
 R299: x7_7_ + x14_7_ <= 1
 R300: x7_8_ + x14_8_ <= 1
 R301: x7_9_ + x14_9_ <= 1
 R302: x7_0_ + x15_0_ <= 1
 R303: x7_1_ + x15_1_ <= 1
 R304: x7_2_ + x15_2_ <= 1
 R305: x7_3_ + x15_3_ <= 1
 R306: x7_4_ + x15_4_ <= 1
 R307: x7_5_ + x15_5_ <= 1
 R308: x7_6_ + x15_6_ <= 1
 R309: x7_7_ + x15_7_ <= 1
 R310: x7_8_ + x15_8_ <= 1
 R311: x7_9_ + x15_9_ <= 1
 R312: x7_0_ + x18_0_ <= 1
 R313: x7_1_ + x18_1_ <= 1
 R314: x7_2_ + x18_2_ <= 1
 R315: x7_3_ + x18_3_ <= 1
 R316: x7_4_ + x18_4_ <= 1
 R317: x7_5_ + x18_5_ <= 1
 R318: x7_6_ + x18_6_ <= 1
 R319: x7_7_ + x18_7_ <= 1
 R320: x7_8_ + x18_8_ <= 1
 R321: x7_9_ + x18_9_ <= 1
 R322: x7_0_ + x19_0_ <= 1
 R323: x7_1_ + x19_1_ <= 1
 R324: x7_2_ + x19_2_ <= 1
 R325: x7_3_ + x19_3_ <= 1
 R326: x7_4_ + x19_4_ <= 1
 R327: x7_5_ + x19_5_ <= 1
 R328: x7_6_ + x19_6_ <= 1
 R329: x7_7_ + x19_7_ <= 1
 R330: x7_8_ + x19_8_ <= 1
 R331: x7_9_ + x19_9_ <= 1
 R332: x0_0_ + x8_0_ <= 1
 R333: x0_1_ + x8_1_ <= 1
 R334: x0_2_ + x8_2_ <= 1
 R335: x0_3_ + x8_3_ <= 1
 R336: x0_4_ + x8_4_ <= 1
 R337: x0_5_ + x8_5_ <= 1
 R338: x0_6_ + x8_6_ <= 1
 R339: x0_7_ + x8_7_ <= 1
 R340: x0_8_ + x8_8_ <= 1
 R341: x0_9_ + x8_9_ <= 1
 R342: x7_0_ + x8_0_ <= 1
 R343: x7_1_ + x8_1_ <= 1
 R344: x7_2_ + x8_2_ <= 1
 R345: x7_3_ + x8_3_ <= 1
 R346: x7_4_ + x8_4_ <= 1
 R347: x7_5_ + x8_5_ <= 1
 R348: x7_6_ + x8_6_ <= 1
 R349: x7_7_ + x8_7_ <= 1
 R350: x7_8_ + x8_8_ <= 1
 R351: x7_9_ + x8_9_ <= 1
 R352: x8_0_ + x9_0_ <= 1
 R353: x8_1_ + x9_1_ <= 1
 R354: x8_2_ + x9_2_ <= 1
 R355: x8_3_ + x9_3_ <= 1
 R356: x8_4_ + x9_4_ <= 1
 R357: x8_5_ + x9_5_ <= 1
 R358: x8_6_ + x9_6_ <= 1
 R359: x8_7_ + x9_7_ <= 1
 R360: x8_8_ + x9_8_ <= 1
 R361: x8_9_ + x9_9_ <= 1
 R362: x8_0_ + x11_0_ <= 1
 R363: x8_1_ + x11_1_ <= 1
 R364: x8_2_ + x11_2_ <= 1
 R365: x8_3_ + x11_3_ <= 1
 R366: x8_4_ + x11_4_ <= 1
 R367: x8_5_ + x11_5_ <= 1
 R368: x8_6_ + x11_6_ <= 1
 R369: x8_7_ + x11_7_ <= 1
 R370: x8_8_ + x11_8_ <= 1
 R371: x8_9_ + x11_9_ <= 1
 R372: x8_0_ + x13_0_ <= 1
 R373: x8_1_ + x13_1_ <= 1
 R374: x8_2_ + x13_2_ <= 1
 R375: x8_3_ + x13_3_ <= 1
 R376: x8_4_ + x13_4_ <= 1
 R377: x8_5_ + x13_5_ <= 1
 R378: x8_6_ + x13_6_ <= 1
 R379: x8_7_ + x13_7_ <= 1
 R380: x8_8_ + x13_8_ <= 1
 R381: x8_9_ + x13_9_ <= 1
 R382: x8_0_ + x14_0_ <= 1
 R383: x8_1_ + x14_1_ <= 1
 R384: x8_2_ + x14_2_ <= 1
 R385: x8_3_ + x14_3_ <= 1
 R386: x8_4_ + x14_4_ <= 1
 R387: x8_5_ + x14_5_ <= 1
 R388: x8_6_ + x14_6_ <= 1
 R389: x8_7_ + x14_7_ <= 1
 R390: x8_8_ + x14_8_ <= 1
 R391: x8_9_ + x14_9_ <= 1
 R392: x8_0_ + x15_0_ <= 1
 R393: x8_1_ + x15_1_ <= 1
 R394: x8_2_ + x15_2_ <= 1
 R395: x8_3_ + x15_3_ <= 1
 R396: x8_4_ + x15_4_ <= 1
 R397: x8_5_ + x15_5_ <= 1
 R398: x8_6_ + x15_6_ <= 1
 R399: x8_7_ + x15_7_ <= 1
 R400: x8_8_ + x15_8_ <= 1
 R401: x8_9_ + x15_9_ <= 1
 R402: x8_0_ + x18_0_ <= 1
 R403: x8_1_ + x18_1_ <= 1
 R404: x8_2_ + x18_2_ <= 1
 R405: x8_3_ + x18_3_ <= 1
 R406: x8_4_ + x18_4_ <= 1
 R407: x8_5_ + x18_5_ <= 1
 R408: x8_6_ + x18_6_ <= 1
 R409: x8_7_ + x18_7_ <= 1
 R410: x8_8_ + x18_8_ <= 1
 R411: x8_9_ + x18_9_ <= 1
 R412: x8_0_ + x19_0_ <= 1
 R413: x8_1_ + x19_1_ <= 1
 R414: x8_2_ + x19_2_ <= 1
 R415: x8_3_ + x19_3_ <= 1
 R416: x8_4_ + x19_4_ <= 1
 R417: x8_5_ + x19_5_ <= 1
 R418: x8_6_ + x19_6_ <= 1
 R419: x8_7_ + x19_7_ <= 1
 R420: x8_8_ + x19_8_ <= 1
 R421: x8_9_ + x19_9_ <= 1
 R422: x0_0_ + x9_0_ <= 1
 R423: x0_1_ + x9_1_ <= 1
 R424: x0_2_ + x9_2_ <= 1
 R425: x0_3_ + x9_3_ <= 1
 R426: x0_4_ + x9_4_ <= 1
 R427: x0_5_ + x9_5_ <= 1
 R428: x0_6_ + x9_6_ <= 1
 R429: x0_7_ + x9_7_ <= 1
 R430: x0_8_ + x9_8_ <= 1
 R431: x0_9_ + x9_9_ <= 1
 R432: x4_0_ + x9_0_ <= 1
 R433: x4_1_ + x9_1_ <= 1
 R434: x4_2_ + x9_2_ <= 1
 R435: x4_3_ + x9_3_ <= 1
 R436: x4_4_ + x9_4_ <= 1
 R437: x4_5_ + x9_5_ <= 1
 R438: x4_6_ + x9_6_ <= 1
 R439: x4_7_ + x9_7_ <= 1
 R440: x4_8_ + x9_8_ <= 1
 R441: x4_9_ + x9_9_ <= 1
 R442: x5_0_ + x9_0_ <= 1
 R443: x5_1_ + x9_1_ <= 1
 R444: x5_2_ + x9_2_ <= 1
 R445: x5_3_ + x9_3_ <= 1
 R446: x5_4_ + x9_4_ <= 1
 R447: x5_5_ + x9_5_ <= 1
 R448: x5_6_ + x9_6_ <= 1
 R449: x5_7_ + x9_7_ <= 1
 R450: x5_8_ + x9_8_ <= 1
 R451: x5_9_ + x9_9_ <= 1
 R452: x6_0_ + x9_0_ <= 1
 R453: x6_1_ + x9_1_ <= 1
 R454: x6_2_ + x9_2_ <= 1
 R455: x6_3_ + x9_3_ <= 1
 R456: x6_4_ + x9_4_ <= 1
 R457: x6_5_ + x9_5_ <= 1
 R458: x6_6_ + x9_6_ <= 1
 R459: x6_7_ + x9_7_ <= 1
 R460: x6_8_ + x9_8_ <= 1
 R461: x6_9_ + x9_9_ <= 1
 R462: x8_0_ + x9_0_ <= 1
 R463: x8_1_ + x9_1_ <= 1
 R464: x8_2_ + x9_2_ <= 1
 R465: x8_3_ + x9_3_ <= 1
 R466: x8_4_ + x9_4_ <= 1
 R467: x8_5_ + x9_5_ <= 1
 R468: x8_6_ + x9_6_ <= 1
 R469: x8_7_ + x9_7_ <= 1
 R470: x8_8_ + x9_8_ <= 1
 R471: x8_9_ + x9_9_ <= 1
 R472: x9_0_ + x11_0_ <= 1
 R473: x9_1_ + x11_1_ <= 1
 R474: x9_2_ + x11_2_ <= 1
 R475: x9_3_ + x11_3_ <= 1
 R476: x9_4_ + x11_4_ <= 1
 R477: x9_5_ + x11_5_ <= 1
 R478: x9_6_ + x11_6_ <= 1
 R479: x9_7_ + x11_7_ <= 1
 R480: x9_8_ + x11_8_ <= 1
 R481: x9_9_ + x11_9_ <= 1
 R482: x9_0_ + x14_0_ <= 1
 R483: x9_1_ + x14_1_ <= 1
 R484: x9_2_ + x14_2_ <= 1
 R485: x9_3_ + x14_3_ <= 1
 R486: x9_4_ + x14_4_ <= 1
 R487: x9_5_ + x14_5_ <= 1
 R488: x9_6_ + x14_6_ <= 1
 R489: x9_7_ + x14_7_ <= 1
 R490: x9_8_ + x14_8_ <= 1
 R491: x9_9_ + x14_9_ <= 1
 R492: x9_0_ + x18_0_ <= 1
 R493: x9_1_ + x18_1_ <= 1
 R494: x9_2_ + x18_2_ <= 1
 R495: x9_3_ + x18_3_ <= 1
 R496: x9_4_ + x18_4_ <= 1
 R497: x9_5_ + x18_5_ <= 1
 R498: x9_6_ + x18_6_ <= 1
 R499: x9_7_ + x18_7_ <= 1
 R500: x9_8_ + x18_8_ <= 1
 R501: x9_9_ + x18_9_ <= 1
 R502: x9_0_ + x19_0_ <= 1
 R503: x9_1_ + x19_1_ <= 1
 R504: x9_2_ + x19_2_ <= 1
 R505: x9_3_ + x19_3_ <= 1
 R506: x9_4_ + x19_4_ <= 1
 R507: x9_5_ + x19_5_ <= 1
 R508: x9_6_ + x19_6_ <= 1
 R509: x9_7_ + x19_7_ <= 1
 R510: x9_8_ + x19_8_ <= 1
 R511: x9_9_ + x19_9_ <= 1
 R512: x4_5_ + x10_5_ <= 1
 R513: x4_6_ + x10_6_ <= 1
 R514: x5_5_ + x10_5_ <= 1
 R515: x5_6_ + x10_6_ <= 1
 R516: x6_5_ + x10_5_ <= 1
 R517: x6_6_ + x10_6_ <= 1
 R518: x9_5_ + x10_5_ <= 1
 R519: x9_6_ + x10_6_ <= 1
 R520: x10_5_ + x12_5_ <= 1
 R521: x10_6_ + x12_6_ <= 1
 R522: x10_5_ + x17_5_ <= 1
 R523: x10_6_ + x17_6_ <= 1
 R524: x10_5_ + x18_5_ <= 1
 R525: x10_6_ + x18_6_ <= 1
 R526: x0_0_ + x11_0_ <= 1
 R527: x0_1_ + x11_1_ <= 1
 R528: x0_2_ + x11_2_ <= 1
 R529: x0_3_ + x11_3_ <= 1
 R530: x0_4_ + x11_4_ <= 1
 R531: x0_5_ + x11_5_ <= 1
 R532: x0_6_ + x11_6_ <= 1
 R533: x0_7_ + x11_7_ <= 1
 R534: x0_8_ + x11_8_ <= 1
 R535: x0_9_ + x11_9_ <= 1
 R536: x7_0_ + x11_0_ <= 1
 R537: x7_1_ + x11_1_ <= 1
 R538: x7_2_ + x11_2_ <= 1
 R539: x7_3_ + x11_3_ <= 1
 R540: x7_4_ + x11_4_ <= 1
 R541: x7_5_ + x11_5_ <= 1
 R542: x7_6_ + x11_6_ <= 1
 R543: x7_7_ + x11_7_ <= 1
 R544: x7_8_ + x11_8_ <= 1
 R545: x7_9_ + x11_9_ <= 1
 R546: x8_0_ + x11_0_ <= 1
 R547: x8_1_ + x11_1_ <= 1
 R548: x8_2_ + x11_2_ <= 1
 R549: x8_3_ + x11_3_ <= 1
 R550: x8_4_ + x11_4_ <= 1
 R551: x8_5_ + x11_5_ <= 1
 R552: x8_6_ + x11_6_ <= 1
 R553: x8_7_ + x11_7_ <= 1
 R554: x8_8_ + x11_8_ <= 1
 R555: x8_9_ + x11_9_ <= 1
 R556: x9_0_ + x11_0_ <= 1
 R557: x9_1_ + x11_1_ <= 1
 R558: x9_2_ + x11_2_ <= 1
 R559: x9_3_ + x11_3_ <= 1
 R560: x9_4_ + x11_4_ <= 1
 R561: x9_5_ + x11_5_ <= 1
 R562: x9_6_ + x11_6_ <= 1
 R563: x9_7_ + x11_7_ <= 1
 R564: x9_8_ + x11_8_ <= 1
 R565: x9_9_ + x11_9_ <= 1
 R566: x11_0_ + x13_0_ <= 1
 R567: x11_1_ + x13_1_ <= 1
 R568: x11_2_ + x13_2_ <= 1
 R569: x11_3_ + x13_3_ <= 1
 R570: x11_4_ + x13_4_ <= 1
 R571: x11_5_ + x13_5_ <= 1
 R572: x11_6_ + x13_6_ <= 1
 R573: x11_7_ + x13_7_ <= 1
 R574: x11_8_ + x13_8_ <= 1
 R575: x11_9_ + x13_9_ <= 1
 R576: x11_0_ + x14_0_ <= 1
 R577: x11_1_ + x14_1_ <= 1
 R578: x11_2_ + x14_2_ <= 1
 R579: x11_3_ + x14_3_ <= 1
 R580: x11_4_ + x14_4_ <= 1
 R581: x11_5_ + x14_5_ <= 1
 R582: x11_6_ + x14_6_ <= 1
 R583: x11_7_ + x14_7_ <= 1
 R584: x11_8_ + x14_8_ <= 1
 R585: x11_9_ + x14_9_ <= 1
 R586: x11_0_ + x15_0_ <= 1
 R587: x11_1_ + x15_1_ <= 1
 R588: x11_2_ + x15_2_ <= 1
 R589: x11_3_ + x15_3_ <= 1
 R590: x11_4_ + x15_4_ <= 1
 R591: x11_5_ + x15_5_ <= 1
 R592: x11_6_ + x15_6_ <= 1
 R593: x11_7_ + x15_7_ <= 1
 R594: x11_8_ + x15_8_ <= 1
 R595: x11_9_ + x15_9_ <= 1
 R596: x11_0_ + x18_0_ <= 1
 R597: x11_1_ + x18_1_ <= 1
 R598: x11_2_ + x18_2_ <= 1
 R599: x11_3_ + x18_3_ <= 1
 R600: x11_4_ + x18_4_ <= 1
 R601: x11_5_ + x18_5_ <= 1
 R602: x11_6_ + x18_6_ <= 1
 R603: x11_7_ + x18_7_ <= 1
 R604: x11_8_ + x18_8_ <= 1
 R605: x11_9_ + x18_9_ <= 1
 R606: x11_0_ + x19_0_ <= 1
 R607: x11_1_ + x19_1_ <= 1
 R608: x11_2_ + x19_2_ <= 1
 R609: x11_3_ + x19_3_ <= 1
 R610: x11_4_ + x19_4_ <= 1
 R611: x11_5_ + x19_5_ <= 1
 R612: x11_6_ + x19_6_ <= 1
 R613: x11_7_ + x19_7_ <= 1
 R614: x11_8_ + x19_8_ <= 1
 R615: x11_9_ + x19_9_ <= 1
 R616: x0_5_ + x12_5_ <= 1
 R617: x0_6_ + x12_6_ <= 1
 R618: x1_5_ + x12_5_ <= 1
 R619: x1_6_ + x12_6_ <= 1
 R620: x3_5_ + x12_5_ <= 1
 R621: x3_6_ + x12_6_ <= 1
 R622: x4_5_ + x12_5_ <= 1
 R623: x4_6_ + x12_6_ <= 1
 R624: x5_5_ + x12_5_ <= 1
 R625: x5_6_ + x12_6_ <= 1
 R626: x6_5_ + x12_5_ <= 1
 R627: x6_6_ + x12_6_ <= 1
 R628: x9_5_ + x12_5_ <= 1
 R629: x9_6_ + x12_6_ <= 1
 R630: x10_5_ + x12_5_ <= 1
 R631: x10_6_ + x12_6_ <= 1
 R632: x11_5_ + x12_5_ <= 1
 R633: x11_6_ + x12_6_ <= 1
 R634: x12_5_ + x14_5_ <= 1
 R635: x12_6_ + x14_6_ <= 1
 R636: x12_5_ + x17_5_ <= 1
 R637: x12_6_ + x17_6_ <= 1
 R638: x12_5_ + x18_5_ <= 1
 R639: x12_6_ + x18_6_ <= 1
 R640: x12_5_ + x19_5_ <= 1
 R641: x12_6_ + x19_6_ <= 1
 R642: x0_0_ + x13_0_ <= 1
 R643: x0_1_ + x13_1_ <= 1
 R644: x0_2_ + x13_2_ <= 1
 R645: x0_3_ + x13_3_ <= 1
 R646: x0_4_ + x13_4_ <= 1
 R647: x0_5_ + x13_5_ <= 1
 R648: x0_6_ + x13_6_ <= 1
 R649: x0_7_ + x13_7_ <= 1
 R650: x0_8_ + x13_8_ <= 1
 R651: x0_9_ + x13_9_ <= 1
 R652: x7_0_ + x13_0_ <= 1
 R653: x7_1_ + x13_1_ <= 1
 R654: x7_2_ + x13_2_ <= 1
 R655: x7_3_ + x13_3_ <= 1
 R656: x7_4_ + x13_4_ <= 1
 R657: x7_5_ + x13_5_ <= 1
 R658: x7_6_ + x13_6_ <= 1
 R659: x7_7_ + x13_7_ <= 1
 R660: x7_8_ + x13_8_ <= 1
 R661: x7_9_ + x13_9_ <= 1
 R662: x8_0_ + x13_0_ <= 1
 R663: x8_1_ + x13_1_ <= 1
 R664: x8_2_ + x13_2_ <= 1
 R665: x8_3_ + x13_3_ <= 1
 R666: x8_4_ + x13_4_ <= 1
 R667: x8_5_ + x13_5_ <= 1
 R668: x8_6_ + x13_6_ <= 1
 R669: x8_7_ + x13_7_ <= 1
 R670: x8_8_ + x13_8_ <= 1
 R671: x8_9_ + x13_9_ <= 1
 R672: x11_0_ + x13_0_ <= 1
 R673: x11_1_ + x13_1_ <= 1
 R674: x11_2_ + x13_2_ <= 1
 R675: x11_3_ + x13_3_ <= 1
 R676: x11_4_ + x13_4_ <= 1
 R677: x11_5_ + x13_5_ <= 1
 R678: x11_6_ + x13_6_ <= 1
 R679: x11_7_ + x13_7_ <= 1
 R680: x11_8_ + x13_8_ <= 1
 R681: x11_9_ + x13_9_ <= 1
 R682: x13_0_ + x14_0_ <= 1
 R683: x13_1_ + x14_1_ <= 1
 R684: x13_2_ + x14_2_ <= 1
 R685: x13_3_ + x14_3_ <= 1
 R686: x13_4_ + x14_4_ <= 1
 R687: x13_5_ + x14_5_ <= 1
 R688: x13_6_ + x14_6_ <= 1
 R689: x13_7_ + x14_7_ <= 1
 R690: x13_8_ + x14_8_ <= 1
 R691: x13_9_ + x14_9_ <= 1
 R692: x13_0_ + x15_0_ <= 1
 R693: x13_1_ + x15_1_ <= 1
 R694: x13_2_ + x15_2_ <= 1
 R695: x13_3_ + x15_3_ <= 1
 R696: x13_4_ + x15_4_ <= 1
 R697: x13_5_ + x15_5_ <= 1
 R698: x13_6_ + x15_6_ <= 1
 R699: x13_7_ + x15_7_ <= 1
 R700: x13_8_ + x15_8_ <= 1
 R701: x13_9_ + x15_9_ <= 1
 R702: x13_0_ + x18_0_ <= 1
 R703: x13_1_ + x18_1_ <= 1
 R704: x13_2_ + x18_2_ <= 1
 R705: x13_3_ + x18_3_ <= 1
 R706: x13_4_ + x18_4_ <= 1
 R707: x13_5_ + x18_5_ <= 1
 R708: x13_6_ + x18_6_ <= 1
 R709: x13_7_ + x18_7_ <= 1
 R710: x13_8_ + x18_8_ <= 1
 R711: x13_9_ + x18_9_ <= 1
 R712: x13_0_ + x19_0_ <= 1
 R713: x13_1_ + x19_1_ <= 1
 R714: x13_2_ + x19_2_ <= 1
 R715: x13_3_ + x19_3_ <= 1
 R716: x13_4_ + x19_4_ <= 1
 R717: x13_5_ + x19_5_ <= 1
 R718: x13_6_ + x19_6_ <= 1
 R719: x13_7_ + x19_7_ <= 1
 R720: x13_8_ + x19_8_ <= 1
 R721: x13_9_ + x19_9_ <= 1
 R722: x0_0_ + x14_0_ <= 1
 R723: x0_1_ + x14_1_ <= 1
 R724: x0_2_ + x14_2_ <= 1
 R725: x0_3_ + x14_3_ <= 1
 R726: x0_4_ + x14_4_ <= 1
 R727: x0_5_ + x14_5_ <= 1
 R728: x0_6_ + x14_6_ <= 1
 R729: x0_7_ + x14_7_ <= 1
 R730: x0_8_ + x14_8_ <= 1
 R731: x0_9_ + x14_9_ <= 1
 R732: x7_0_ + x14_0_ <= 1
 R733: x7_1_ + x14_1_ <= 1
 R734: x7_2_ + x14_2_ <= 1
 R735: x7_3_ + x14_3_ <= 1
 R736: x7_4_ + x14_4_ <= 1
 R737: x7_5_ + x14_5_ <= 1
 R738: x7_6_ + x14_6_ <= 1
 R739: x7_7_ + x14_7_ <= 1
 R740: x7_8_ + x14_8_ <= 1
 R741: x7_9_ + x14_9_ <= 1
 R742: x8_0_ + x14_0_ <= 1
 R743: x8_1_ + x14_1_ <= 1
 R744: x8_2_ + x14_2_ <= 1
 R745: x8_3_ + x14_3_ <= 1
 R746: x8_4_ + x14_4_ <= 1
 R747: x8_5_ + x14_5_ <= 1
 R748: x8_6_ + x14_6_ <= 1
 R749: x8_7_ + x14_7_ <= 1
 R750: x8_8_ + x14_8_ <= 1
 R751: x8_9_ + x14_9_ <= 1
 R752: x9_0_ + x14_0_ <= 1
 R753: x9_1_ + x14_1_ <= 1
 R754: x9_2_ + x14_2_ <= 1
 R755: x9_3_ + x14_3_ <= 1
 R756: x9_4_ + x14_4_ <= 1
 R757: x9_5_ + x14_5_ <= 1
 R758: x9_6_ + x14_6_ <= 1
 R759: x9_7_ + x14_7_ <= 1
 R760: x9_8_ + x14_8_ <= 1
 R761: x9_9_ + x14_9_ <= 1
 R762: x11_0_ + x14_0_ <= 1
 R763: x11_1_ + x14_1_ <= 1
 R764: x11_2_ + x14_2_ <= 1
 R765: x11_3_ + x14_3_ <= 1
 R766: x11_4_ + x14_4_ <= 1
 R767: x11_5_ + x14_5_ <= 1
 R768: x11_6_ + x14_6_ <= 1
 R769: x11_7_ + x14_7_ <= 1
 R770: x11_8_ + x14_8_ <= 1
 R771: x11_9_ + x14_9_ <= 1
 R772: x13_0_ + x14_0_ <= 1
 R773: x13_1_ + x14_1_ <= 1
 R774: x13_2_ + x14_2_ <= 1
 R775: x13_3_ + x14_3_ <= 1
 R776: x13_4_ + x14_4_ <= 1
 R777: x13_5_ + x14_5_ <= 1
 R778: x13_6_ + x14_6_ <= 1
 R779: x13_7_ + x14_7_ <= 1
 R780: x13_8_ + x14_8_ <= 1
 R781: x13_9_ + x14_9_ <= 1
 R782: x14_0_ + x15_0_ <= 1
 R783: x14_1_ + x15_1_ <= 1
 R784: x14_2_ + x15_2_ <= 1
 R785: x14_3_ + x15_3_ <= 1
 R786: x14_4_ + x15_4_ <= 1
 R787: x14_5_ + x15_5_ <= 1
 R788: x14_6_ + x15_6_ <= 1
 R789: x14_7_ + x15_7_ <= 1
 R790: x14_8_ + x15_8_ <= 1
 R791: x14_9_ + x15_9_ <= 1
 R792: x14_0_ + x18_0_ <= 1
 R793: x14_1_ + x18_1_ <= 1
 R794: x14_2_ + x18_2_ <= 1
 R795: x14_3_ + x18_3_ <= 1
 R796: x14_4_ + x18_4_ <= 1
 R797: x14_5_ + x18_5_ <= 1
 R798: x14_6_ + x18_6_ <= 1
 R799: x14_7_ + x18_7_ <= 1
 R800: x14_8_ + x18_8_ <= 1
 R801: x14_9_ + x18_9_ <= 1
 R802: x14_0_ + x19_0_ <= 1
 R803: x14_1_ + x19_1_ <= 1
 R804: x14_2_ + x19_2_ <= 1
 R805: x14_3_ + x19_3_ <= 1
 R806: x14_4_ + x19_4_ <= 1
 R807: x14_5_ + x19_5_ <= 1
 R808: x14_6_ + x19_6_ <= 1
 R809: x14_7_ + x19_7_ <= 1
 R810: x14_8_ + x19_8_ <= 1
 R811: x14_9_ + x19_9_ <= 1
 R812: x0_0_ + x15_0_ <= 1
 R813: x0_1_ + x15_1_ <= 1
 R814: x0_2_ + x15_2_ <= 1
 R815: x0_3_ + x15_3_ <= 1
 R816: x0_4_ + x15_4_ <= 1
 R817: x0_5_ + x15_5_ <= 1
 R818: x0_6_ + x15_6_ <= 1
 R819: x0_7_ + x15_7_ <= 1
 R820: x0_8_ + x15_8_ <= 1
 R821: x0_9_ + x15_9_ <= 1
 R822: x7_0_ + x15_0_ <= 1
 R823: x7_1_ + x15_1_ <= 1
 R824: x7_2_ + x15_2_ <= 1
 R825: x7_3_ + x15_3_ <= 1
 R826: x7_4_ + x15_4_ <= 1
 R827: x7_5_ + x15_5_ <= 1
 R828: x7_6_ + x15_6_ <= 1
 R829: x7_7_ + x15_7_ <= 1
 R830: x7_8_ + x15_8_ <= 1
 R831: x7_9_ + x15_9_ <= 1
 R832: x8_0_ + x15_0_ <= 1
 R833: x8_1_ + x15_1_ <= 1
 R834: x8_2_ + x15_2_ <= 1
 R835: x8_3_ + x15_3_ <= 1
 R836: x8_4_ + x15_4_ <= 1
 R837: x8_5_ + x15_5_ <= 1
 R838: x8_6_ + x15_6_ <= 1
 R839: x8_7_ + x15_7_ <= 1
 R840: x8_8_ + x15_8_ <= 1
 R841: x8_9_ + x15_9_ <= 1
 R842: x11_0_ + x15_0_ <= 1
 R843: x11_1_ + x15_1_ <= 1
 R844: x11_2_ + x15_2_ <= 1
 R845: x11_3_ + x15_3_ <= 1
 R846: x11_4_ + x15_4_ <= 1
 R847: x11_5_ + x15_5_ <= 1
 R848: x11_6_ + x15_6_ <= 1
 R849: x11_7_ + x15_7_ <= 1
 R850: x11_8_ + x15_8_ <= 1
 R851: x11_9_ + x15_9_ <= 1
 R852: x13_0_ + x15_0_ <= 1
 R853: x13_1_ + x15_1_ <= 1
 R854: x13_2_ + x15_2_ <= 1
 R855: x13_3_ + x15_3_ <= 1
 R856: x13_4_ + x15_4_ <= 1
 R857: x13_5_ + x15_5_ <= 1
 R858: x13_6_ + x15_6_ <= 1
 R859: x13_7_ + x15_7_ <= 1
 R860: x13_8_ + x15_8_ <= 1
 R861: x13_9_ + x15_9_ <= 1
 R862: x14_0_ + x15_0_ <= 1
 R863: x14_1_ + x15_1_ <= 1
 R864: x14_2_ + x15_2_ <= 1
 R865: x14_3_ + x15_3_ <= 1
 R866: x14_4_ + x15_4_ <= 1
 R867: x14_5_ + x15_5_ <= 1
 R868: x14_6_ + x15_6_ <= 1
 R869: x14_7_ + x15_7_ <= 1
 R870: x14_8_ + x15_8_ <= 1
 R871: x14_9_ + x15_9_ <= 1
 R872: x15_0_ + x18_0_ <= 1
 R873: x15_1_ + x18_1_ <= 1
 R874: x15_2_ + x18_2_ <= 1
 R875: x15_3_ + x18_3_ <= 1
 R876: x15_4_ + x18_4_ <= 1
 R877: x15_5_ + x18_5_ <= 1
 R878: x15_6_ + x18_6_ <= 1
 R879: x15_7_ + x18_7_ <= 1
 R880: x15_8_ + x18_8_ <= 1
 R881: x15_9_ + x18_9_ <= 1
 R882: x15_0_ + x19_0_ <= 1
 R883: x15_1_ + x19_1_ <= 1
 R884: x15_2_ + x19_2_ <= 1
 R885: x15_3_ + x19_3_ <= 1
 R886: x15_4_ + x19_4_ <= 1
 R887: x15_5_ + x19_5_ <= 1
 R888: x15_6_ + x19_6_ <= 1
 R889: x15_7_ + x19_7_ <= 1
 R890: x15_8_ + x19_8_ <= 1
 R891: x15_9_ + x19_9_ <= 1
 R892: x0_5_ + x17_5_ <= 1
 R893: x0_6_ + x17_6_ <= 1
 R894: x1_5_ + x17_5_ <= 1
 R895: x1_6_ + x17_6_ <= 1
 R896: x3_5_ + x17_5_ <= 1
 R897: x3_6_ + x17_6_ <= 1
 R898: x4_5_ + x17_5_ <= 1
 R899: x4_6_ + x17_6_ <= 1
 R900: x5_5_ + x17_5_ <= 1
 R901: x5_6_ + x17_6_ <= 1
 R902: x6_5_ + x17_5_ <= 1
 R903: x6_6_ + x17_6_ <= 1
 R904: x9_5_ + x17_5_ <= 1
 R905: x9_6_ + x17_6_ <= 1
 R906: x11_5_ + x17_5_ <= 1
 R907: x11_6_ + x17_6_ <= 1
 R908: x14_5_ + x17_5_ <= 1
 R909: x14_6_ + x17_6_ <= 1
 R910: x17_5_ + x18_5_ <= 1
 R911: x17_6_ + x18_6_ <= 1
 R912: x17_5_ + x19_5_ <= 1
 R913: x17_6_ + x19_6_ <= 1
 R914: x0_0_ + x18_0_ <= 1
 R915: x0_1_ + x18_1_ <= 1
 R916: x0_2_ + x18_2_ <= 1
 R917: x0_3_ + x18_3_ <= 1
 R918: x0_4_ + x18_4_ <= 1
 R919: x0_5_ + x18_5_ <= 1
 R920: x0_6_ + x18_6_ <= 1
 R921: x0_7_ + x18_7_ <= 1
 R922: x0_8_ + x18_8_ <= 1
 R923: x0_9_ + x18_9_ <= 1
 R924: x4_0_ + x18_0_ <= 1
 R925: x4_1_ + x18_1_ <= 1
 R926: x4_2_ + x18_2_ <= 1
 R927: x4_3_ + x18_3_ <= 1
 R928: x4_4_ + x18_4_ <= 1
 R929: x4_5_ + x18_5_ <= 1
 R930: x4_6_ + x18_6_ <= 1
 R931: x4_7_ + x18_7_ <= 1
 R932: x4_8_ + x18_8_ <= 1
 R933: x4_9_ + x18_9_ <= 1
 R934: x5_0_ + x18_0_ <= 1
 R935: x5_1_ + x18_1_ <= 1
 R936: x5_2_ + x18_2_ <= 1
 R937: x5_3_ + x18_3_ <= 1
 R938: x5_4_ + x18_4_ <= 1
 R939: x5_5_ + x18_5_ <= 1
 R940: x5_6_ + x18_6_ <= 1
 R941: x5_7_ + x18_7_ <= 1
 R942: x5_8_ + x18_8_ <= 1
 R943: x5_9_ + x18_9_ <= 1
 R944: x6_0_ + x18_0_ <= 1
 R945: x6_1_ + x18_1_ <= 1
 R946: x6_2_ + x18_2_ <= 1
 R947: x6_3_ + x18_3_ <= 1
 R948: x6_4_ + x18_4_ <= 1
 R949: x6_5_ + x18_5_ <= 1
 R950: x6_6_ + x18_6_ <= 1
 R951: x6_7_ + x18_7_ <= 1
 R952: x6_8_ + x18_8_ <= 1
 R953: x6_9_ + x18_9_ <= 1
 R954: x7_0_ + x18_0_ <= 1
 R955: x7_1_ + x18_1_ <= 1
 R956: x7_2_ + x18_2_ <= 1
 R957: x7_3_ + x18_3_ <= 1
 R958: x7_4_ + x18_4_ <= 1
 R959: x7_5_ + x18_5_ <= 1
 R960: x7_6_ + x18_6_ <= 1
 R961: x7_7_ + x18_7_ <= 1
 R962: x7_8_ + x18_8_ <= 1
 R963: x7_9_ + x18_9_ <= 1
 R964: x8_0_ + x18_0_ <= 1
 R965: x8_1_ + x18_1_ <= 1
 R966: x8_2_ + x18_2_ <= 1
 R967: x8_3_ + x18_3_ <= 1
 R968: x8_4_ + x18_4_ <= 1
 R969: x8_5_ + x18_5_ <= 1
 R970: x8_6_ + x18_6_ <= 1
 R971: x8_7_ + x18_7_ <= 1
 R972: x8_8_ + x18_8_ <= 1
 R973: x8_9_ + x18_9_ <= 1
 R974: x9_0_ + x18_0_ <= 1
 R975: x9_1_ + x18_1_ <= 1
 R976: x9_2_ + x18_2_ <= 1
 R977: x9_3_ + x18_3_ <= 1
 R978: x9_4_ + x18_4_ <= 1
 R979: x9_5_ + x18_5_ <= 1
 R980: x9_6_ + x18_6_ <= 1
 R981: x9_7_ + x18_7_ <= 1
 R982: x9_8_ + x18_8_ <= 1
 R983: x9_9_ + x18_9_ <= 1
 R984: x11_0_ + x18_0_ <= 1
 R985: x11_1_ + x18_1_ <= 1
 R986: x11_2_ + x18_2_ <= 1
 R987: x11_3_ + x18_3_ <= 1
 R988: x11_4_ + x18_4_ <= 1
 R989: x11_5_ + x18_5_ <= 1
 R990: x11_6_ + x18_6_ <= 1
 R991: x11_7_ + x18_7_ <= 1
 R992: x11_8_ + x18_8_ <= 1
 R993: x11_9_ + x18_9_ <= 1
 R994: x13_0_ + x18_0_ <= 1
 R995: x13_1_ + x18_1_ <= 1
 R996: x13_2_ + x18_2_ <= 1
 R997: x13_3_ + x18_3_ <= 1
 R998: x13_4_ + x18_4_ <= 1
 R999: x13_5_ + x18_5_ <= 1
 R1000: x13_6_ + x18_6_ <= 1
 R1001: x13_7_ + x18_7_ <= 1
 R1002: x13_8_ + x18_8_ <= 1
 R1003: x13_9_ + x18_9_ <= 1
 R1004: x14_0_ + x18_0_ <= 1
 R1005: x14_1_ + x18_1_ <= 1
 R1006: x14_2_ + x18_2_ <= 1
 R1007: x14_3_ + x18_3_ <= 1
 R1008: x14_4_ + x18_4_ <= 1
 R1009: x14_5_ + x18_5_ <= 1
 R1010: x14_6_ + x18_6_ <= 1
 R1011: x14_7_ + x18_7_ <= 1
 R1012: x14_8_ + x18_8_ <= 1
 R1013: x14_9_ + x18_9_ <= 1
 R1014: x15_0_ + x18_0_ <= 1
 R1015: x15_1_ + x18_1_ <= 1
 R1016: x15_2_ + x18_2_ <= 1
 R1017: x15_3_ + x18_3_ <= 1
 R1018: x15_4_ + x18_4_ <= 1
 R1019: x15_5_ + x18_5_ <= 1
 R1020: x15_6_ + x18_6_ <= 1
 R1021: x15_7_ + x18_7_ <= 1
 R1022: x15_8_ + x18_8_ <= 1
 R1023: x15_9_ + x18_9_ <= 1
 R1024: x18_0_ + x19_0_ <= 1
 R1025: x18_1_ + x19_1_ <= 1
 R1026: x18_2_ + x19_2_ <= 1
 R1027: x18_3_ + x19_3_ <= 1
 R1028: x18_4_ + x19_4_ <= 1
 R1029: x18_5_ + x19_5_ <= 1
 R1030: x18_6_ + x19_6_ <= 1
 R1031: x18_7_ + x19_7_ <= 1
 R1032: x18_8_ + x19_8_ <= 1
 R1033: x18_9_ + x19_9_ <= 1
 R1034: x0_0_ + x19_0_ <= 1
 R1035: x0_1_ + x19_1_ <= 1
 R1036: x0_2_ + x19_2_ <= 1
 R1037: x0_3_ + x19_3_ <= 1
 R1038: x0_4_ + x19_4_ <= 1
 R1039: x0_5_ + x19_5_ <= 1
 R1040: x0_6_ + x19_6_ <= 1
 R1041: x0_7_ + x19_7_ <= 1
 R1042: x0_8_ + x19_8_ <= 1
 R1043: x0_9_ + x19_9_ <= 1
 R1044: x7_0_ + x19_0_ <= 1
 R1045: x7_1_ + x19_1_ <= 1
 R1046: x7_2_ + x19_2_ <= 1
 R1047: x7_3_ + x19_3_ <= 1
 R1048: x7_4_ + x19_4_ <= 1
 R1049: x7_5_ + x19_5_ <= 1
 R1050: x7_6_ + x19_6_ <= 1
 R1051: x7_7_ + x19_7_ <= 1
 R1052: x7_8_ + x19_8_ <= 1
 R1053: x7_9_ + x19_9_ <= 1
 R1054: x8_0_ + x19_0_ <= 1
 R1055: x8_1_ + x19_1_ <= 1
 R1056: x8_2_ + x19_2_ <= 1
 R1057: x8_3_ + x19_3_ <= 1
 R1058: x8_4_ + x19_4_ <= 1
 R1059: x8_5_ + x19_5_ <= 1
 R1060: x8_6_ + x19_6_ <= 1
 R1061: x8_7_ + x19_7_ <= 1
 R1062: x8_8_ + x19_8_ <= 1
 R1063: x8_9_ + x19_9_ <= 1
 R1064: x9_0_ + x19_0_ <= 1
 R1065: x9_1_ + x19_1_ <= 1
 R1066: x9_2_ + x19_2_ <= 1
 R1067: x9_3_ + x19_3_ <= 1
 R1068: x9_4_ + x19_4_ <= 1
 R1069: x9_5_ + x19_5_ <= 1
 R1070: x9_6_ + x19_6_ <= 1
 R1071: x9_7_ + x19_7_ <= 1
 R1072: x9_8_ + x19_8_ <= 1
 R1073: x9_9_ + x19_9_ <= 1
 R1074: x11_0_ + x19_0_ <= 1
 R1075: x11_1_ + x19_1_ <= 1
 R1076: x11_2_ + x19_2_ <= 1
 R1077: x11_3_ + x19_3_ <= 1
 R1078: x11_4_ + x19_4_ <= 1
 R1079: x11_5_ + x19_5_ <= 1
 R1080: x11_6_ + x19_6_ <= 1
 R1081: x11_7_ + x19_7_ <= 1
 R1082: x11_8_ + x19_8_ <= 1
 R1083: x11_9_ + x19_9_ <= 1
 R1084: x13_0_ + x19_0_ <= 1
 R1085: x13_1_ + x19_1_ <= 1
 R1086: x13_2_ + x19_2_ <= 1
 R1087: x13_3_ + x19_3_ <= 1
 R1088: x13_4_ + x19_4_ <= 1
 R1089: x13_5_ + x19_5_ <= 1
 R1090: x13_6_ + x19_6_ <= 1
 R1091: x13_7_ + x19_7_ <= 1
 R1092: x13_8_ + x19_8_ <= 1
 R1093: x13_9_ + x19_9_ <= 1
 R1094: x14_0_ + x19_0_ <= 1
 R1095: x14_1_ + x19_1_ <= 1
 R1096: x14_2_ + x19_2_ <= 1
 R1097: x14_3_ + x19_3_ <= 1
 R1098: x14_4_ + x19_4_ <= 1
 R1099: x14_5_ + x19_5_ <= 1
 R1100: x14_6_ + x19_6_ <= 1
 R1101: x14_7_ + x19_7_ <= 1
 R1102: x14_8_ + x19_8_ <= 1
 R1103: x14_9_ + x19_9_ <= 1
 R1104: x15_0_ + x19_0_ <= 1
 R1105: x15_1_ + x19_1_ <= 1
 R1106: x15_2_ + x19_2_ <= 1
 R1107: x15_3_ + x19_3_ <= 1
 R1108: x15_4_ + x19_4_ <= 1
 R1109: x15_5_ + x19_5_ <= 1
 R1110: x15_6_ + x19_6_ <= 1
 R1111: x15_7_ + x19_7_ <= 1
 R1112: x15_8_ + x19_8_ <= 1
 R1113: x15_9_ + x19_9_ <= 1
 R1114: x18_0_ + x19_0_ <= 1
 R1115: x18_1_ + x19_1_ <= 1
 R1116: x18_2_ + x19_2_ <= 1
 R1117: x18_3_ + x19_3_ <= 1
 R1118: x18_4_ + x19_4_ <= 1
 R1119: x18_5_ + x19_5_ <= 1
 R1120: x18_6_ + x19_6_ <= 1
 R1121: x18_7_ + x19_7_ <= 1
 R1122: x18_8_ + x19_8_ <= 1
 R1123: x18_9_ + x19_9_ <= 1
 R1124: <= 1
Bounds
Binaries
 x0_0_ x0_1_ x0_2_ x0_3_ x0_4_ x0_5_ x0_6_ x0_7_ x0_8_ x0_9_ x0_n_ x1_5_
 x1_6_ x1_n_ x2_5_ x2_6_ x2_n_ x3_5_ x3_6_ x3_n_ x4_0_ x4_1_ x4_2_ x4_3_
 x4_4_ x4_5_ x4_6_ x4_7_ x4_8_ x4_9_ x4_n_ x5_0_ x5_1_ x5_2_ x5_3_ x5_4_
 x5_5_ x5_6_ x5_7_ x5_8_ x5_9_ x5_n_ x6_0_ x6_1_ x6_2_ x6_3_ x6_4_ x6_5_
 x6_6_ x6_7_ x6_8_ x6_9_ x6_n_ x7_0_ x7_1_ x7_2_ x7_3_ x7_4_ x7_5_ x7_6_
 x7_7_ x7_8_ x7_9_ x7_n_ x8_0_ x8_1_ x8_2_ x8_3_ x8_4_ x8_5_ x8_6_ x8_7_
 x8_8_ x8_9_ x8_n_ x9_0_ x9_1_ x9_2_ x9_3_ x9_4_ x9_5_ x9_6_ x9_7_ x9_8_
 x9_9_ x9_n_ x10_5_ x10_6_ x10_n_ x11_0_ x11_1_ x11_2_ x11_3_ x11_4_ x11_5_
 x11_6_ x11_7_ x11_8_ x11_9_ x11_n_ x12_5_ x12_6_ x12_n_ x13_0_ x13_1_
 x13_2_ x13_3_ x13_4_ x13_5_ x13_6_ x13_7_ x13_8_ x13_9_ x13_n_ x14_0_
 x14_1_ x14_2_ x14_3_ x14_4_ x14_5_ x14_6_ x14_7_ x14_8_ x14_9_ x14_n_
 x15_0_ x15_1_ x15_2_ x15_3_ x15_4_ x15_5_ x15_6_ x15_7_ x15_8_ x15_9_
 x15_n_ x16_5_ x16_6_ x16_n_ x17_5_ x17_6_ x17_n_ x18_0_ x18_1_ x18_2_
 x18_3_ x18_4_ x18_5_ x18_6_ x18_7_ x18_8_ x18_9_ x18_n_ x19_0_ x19_1_
 x19_2_ x19_3_ x19_4_ x19_5_ x19_6_ x19_7_ x19_8_ x19_9_ x19_n_
End
